benchmarks/VRPTW/TSPTW/solution/n40w20.002.txt.solution
1 17 10 11 33 19 28 9 38 29 35 25 26 24 27 13 7 8 30 21 40 39 31 6 23 34 12 18 4 3 32 16 20 15 37 2 5 14 41 36 22 
552
